qbf_easy_train/easy_2056_UNSAT.qdimacs
p cnf 26 70
a 12 13 23 0
e 1 2 3 4 5 6 7 8 9 10 11 14 15 16 17 18 19 20 21 22 24 25 26 0
4 2 0
4 -3 0
-2 3 -4 0
5 -1 0
5 -4 0
1 4 -5 0
6 -7 -8 0
-6 7 -8 0
6 7 8 0
-6 -7 8 0
9 8 0
9 6 0
-8 -6 -9 0
11 10 0
11 -1 0
-10 1 -11 0
-12 11 0
-12 -1 0
-11 1 12 0
9 -12 -13 0
-9 12 -13 0
9 12 13 0
-9 -12 13 0
-14 -5 0
-14 13 0
5 -13 14 0
2 6 -15 0
-2 -6 -15 0
2 -6 15 0
-2 6 15 0
-17 2 0
-17 4 0
-2 -4 17 0
16 -17 -18 0
-16 17 -18 0
16 17 18 0
-16 -17 18 0
-19 -7 0
-19 10 0
7 -10 19 0
19 20 -21 0
-19 -20 -21 0
19 -20 21 0
-19 20 21 0
-18 21 -22 0
18 -21 -22 0
-18 -21 22 0
18 21 22 0
23 15 0
23 -22 0
-15 22 -23 0
17 -16 -24 0
-17 16 -24 0
17 16 24 0
-17 -16 24 0
-23 -24 -25 0
23 24 -25 0
-23 24 25 0
23 -24 25 0
-14 25 -26 0
14 -25 -26 0
-14 -25 26 0
14 25 26 0
-21 11 -12 -1 20 4 0
-13 -19 -12 -18 -20 0
18 -6 2 -11 24 0
1 -23 -20 -6 0
-8 22 23 -12 25 13 0
-21 -20 13 0
26 0
