sat_easy_train/easy_2056_UNSAT.dimacs
p cnf 143 481
4 -2 0
4 -3 0
2 3 -4 0
5 -1 0
5 -4 0
1 4 -5 0
5 6 -7 0
-5 -6 -7 0
5 -6 7 0
-5 6 7 0
9 8 0
9 2 0
-8 -2 -9 0
-11 -2 0
-11 10 0
2 -10 11 0
-12 -1 0
-12 2 0
1 -2 12 0
11 -12 -13 0
-11 12 -13 0
11 12 13 0
-11 -12 13 0
-15 -6 -16 0
15 6 -16 0
-15 6 16 0
15 -6 16 0
-14 16 -17 0
14 -16 -17 0
-14 -16 17 0
14 16 17 0
18 13 0
18 -17 0
-13 17 -18 0
9 18 -19 0
-9 -18 -19 0
9 -18 19 0
-9 18 19 0
-20 -14 0
-20 -15 0
14 15 20 0
-21 19 0
-21 -20 0
-19 20 21 0
23 13 0
23 6 0
-13 -6 -23 0
2 -16 -24 0
-2 16 -24 0
2 16 24 0
-2 -16 24 0
25 -23 0
25 24 0
23 -24 -25 0
26 22 0
26 25 0
-22 -25 -26 0
27 -21 0
27 -26 0
21 26 -27 0
29 28 0
29 -10 0
-28 10 -29 0
-30 -24 0
-30 -15 0
24 15 30 0
31 29 0
31 -30 0
-29 30 -31 0
28 12 -32 0
-28 -12 -32 0
28 -12 32 0
-28 12 32 0
-33 -32 0
-33 13 0
32 -13 33 0
-36 1 0
-36 -35 0
-1 35 36 0
34 36 -37 0
-34 -36 -37 0
34 -36 37 0
-34 36 37 0
-38 -35 0
-38 -11 0
35 11 38 0
37 38 -39 0
-37 -38 -39 0
37 -38 39 0
-37 38 39 0
40 2 0
40 39 0
-2 -39 -40 0
-40 -14 -41 0
40 14 -41 0
-40 14 41 0
40 -14 41 0
-43 41 0
-43 42 0
-41 -42 43 0
44 -43 0
44 -17 0
43 17 -44 0
45 33 0
45 44 0
-33 -44 -45 0
46 -31 0
46 -45 0
31 45 -46 0
-43 -34 -47 0
43 34 -47 0
-43 34 47 0
43 -34 47 0
-48 1 -49 0
48 -1 -49 0
-48 -1 49 0
48 1 49 0
24 49 -50 0
-24 -49 -50 0
24 -49 50 0
-24 49 50 0
-51 -47 0
-51 -50 0
47 50 51 0
52 -46 0
52 51 0
46 -51 -52 0
54 9 0
54 2 0
-9 -2 -54 0
55 14 0
55 54 0
-14 -54 -55 0
56 -55 0
56 -24 0
55 24 -56 0
-57 -56 0
-57 -12 0
56 12 57 0
58 -57 0
58 -28 0
57 28 -58 0
59 6 0
59 -58 0
-6 58 -59 0
60 -53 0
60 59 0
53 -59 -60 0
-52 -60 -61 0
52 60 -61 0
-52 60 61 0
52 -60 61 0
62 27 0
62 -61 0
-27 61 -62 0
-63 -7 0
-63 62 0
7 -62 63 0
-64 -4 0
-64 23 0
4 -23 64 0
65 24 0
65 64 0
-24 -64 -65 0
66 -16 0
66 -8 0
16 8 -66 0
-66 -34 -67 0
66 34 -67 0
-66 34 67 0
66 -34 67 0
-67 18 -68 0
67 -18 -68 0
-67 -18 68 0
67 18 68 0
69 68 0
69 2 0
-68 -2 -69 0
-70 -65 0
-70 -69 0
65 69 70 0
71 -53 0
71 10 0
53 -10 -71 0
72 -8 0
72 18 0
8 -18 -72 0
73 -3 0
73 -72 0
3 72 -73 0
40 -73 -74 0
-40 73 -74 0
40 73 74 0
-40 -73 74 0
-71 -74 -75 0
71 74 -75 0
-71 74 75 0
71 -74 75 0
-76 -2 0
-76 -42 0
2 42 76 0
-77 66 0
-77 -34 0
-66 34 77 0
76 -77 -78 0
-76 77 -78 0
76 77 78 0
-76 -77 78 0
79 75 0
79 -78 0
-75 78 -79 0
-80 -70 0
-80 -79 0
70 79 80 0
81 -42 0
81 42 0
82 81 0
82 -34 0
-81 34 -82 0
83 82 0
83 29 0
-82 -29 -83 0
-84 -25 0
-84 83 0
25 -83 84 0
85 -84 0
85 -30 0
84 30 -85 0
86 -3 0
86 15 0
3 -15 -86 0
-86 66 -87 0
86 -66 -87 0
-86 -66 87 0
86 66 87 0
-88 -48 0
-88 55 0
48 -55 88 0
88 -57 -89 0
-88 57 -89 0
88 57 89 0
-88 -57 89 0
90 87 0
90 -89 0
-87 89 -90 0
15 -49 -91 0
-15 49 -91 0
15 49 91 0
-15 -49 91 0
-90 -91 -92 0
90 91 -92 0
-90 91 92 0
90 -91 92 0
93 -85 0
93 92 0
85 -92 -93 0
94 -80 0
94 -93 0
80 93 -94 0
-95 -4 0
-95 54 0
4 -54 95 0
-96 -12 0
-96 55 0
12 -55 96 0
-33 -96 -97 0
33 96 -97 0
-33 96 97 0
33 -96 97 0
98 30 0
98 -55 0
-30 55 -98 0
-99 97 0
-99 -98 0
-97 98 99 0
-81 -83 -100 0
81 83 -100 0
-81 83 100 0
81 -83 100 0
-101 99 0
-101 -100 0
-99 100 101 0
102 95 0
102 101 0
-95 -101 -102 0
73 83 -103 0
-73 -83 -103 0
73 -83 103 0
-73 83 103 0
-104 12 0
-104 -43 0
-12 43 104 0
-33 2 -105 0
33 -2 -105 0
-33 -2 105 0
33 2 105 0
106 -104 0
106 105 0
104 -105 -106 0
107 -103 0
107 -106 0
103 106 -107 0
-108 -3 0
-108 13 0
3 -13 108 0
-109 -12 0
-109 -36 0
12 36 109 0
-110 109 0
-110 48 0
-109 -48 110 0
111 39 0
111 -110 0
-39 110 -111 0
-113 37 0
-113 39 0
-37 -39 113 0
114 112 0
114 113 0
-112 -113 -114 0
111 114 -115 0
-111 -114 -115 0
111 -114 115 0
-111 114 115 0
-116 -108 0
-116 -115 0
108 115 116 0
117 -107 0
117 116 0
107 -116 -117 0
-118 102 0
-118 117 0
-102 -117 118 0
-119 -94 0
-119 -118 0
94 118 119 0
-63 119 -120 0
63 -119 -120 0
-63 -119 120 0
63 119 120 0
121 47 0
121 1 0
-47 -1 -121 0
122 -25 0
122 -67 0
25 67 -122 0
-121 122 -123 0
121 -122 -123 0
-121 -122 123 0
121 122 123 0
-124 43 0
-124 83 0
-43 -83 124 0
125 -5 0
125 43 0
5 -43 -125 0
126 -124 0
126 125 0
124 -125 -126 0
127 43 0
127 -73 0
-43 73 -127 0
-34 -127 -128 0
34 127 -128 0
-34 127 128 0
34 -127 128 0
29 73 -129 0
-29 -73 -129 0
29 -73 129 0
-29 73 129 0
130 -129 0
130 66 0
129 -66 -130 0
131 128 0
131 -130 0
-128 130 -131 0
132 126 0
132 131 0
-126 -131 -132 0
123 -132 -133 0
-123 132 -133 0
123 132 133 0
-123 -132 133 0
134 15 0
134 -1 0
-15 1 -134 0
-133 -134 -135 0
133 134 -135 0
-133 134 135 0
133 -134 135 0
-120 135 -136 0
120 -135 -136 0
-120 -135 136 0
120 135 136 0
137 -64 0
137 -57 0
64 57 -137 0
-138 -137 0
-138 36 0
137 -36 138 0
53 -81 -139 0
-53 81 -139 0
53 81 139 0
-53 -81 139 0
-29 -9 -140 0
29 9 -140 0
-29 9 140 0
29 -9 140 0
141 139 0
141 140 0
-139 -140 -141 0
142 -138 0
142 141 0
138 -141 -142 0
-143 136 0
-143 142 0
-136 -142 143 0
127 96 -114 3 134 0
-1 -106 101 46 0
-77 -108 -65 -48 -3 38 0
-140 -19 143 0
-31 73 -95 0
122 105 0
-18 109 0
56 -86 -71 -25 0
-47 30 89 -10 -9 0
-104 98 0
-111 -84 11 -136 -55 0
-25 74 -137 -68 78 0
-56 143 83 127 0
-86 114 -43 31 124 -126 0
-28 -23 -21 77 -35 0
122 -136 0
-13 -18 0
-134 1 -73 -137 60 95 0
16 -56 32 0
26 89 -103 -36 0
-37 -47 119 0
-52 121 -66 0
45 -107 -66 -80 2 0
24 84 0
18 28 117 0
-81 20 0
50 25 0
130 -34 89 30 0
137 -22 55 121 -49 0
1 11 0
76 112 -81 80 -24 -126 0
128 11 124 -80 0
-79 109 -9 -37 0
3 89 -14 -26 0
136 -49 -114 0
2 57 -85 134 0
27 -30 -62 85 0
118 -68 0
6 -66 107 79 -30 -54 0
-137 -106 100 89 -23 139 0
-51 -127 92 -28 0
-86 71 126 -82 0
68 72 -102 125 27 -120 0
36 134 109 -47 -61 0
-49 -25 101 0
72 -21 -113 8 85 0
-23 -67 0
-75 89 95 -88 0
114 -140 17 103 0
39 70 -125 -135 0
112 60 12 124 0
43 100 91 0
-21 103 -119 0
-46 -101 -37 17 -118 10 0
36 -19 -61 -77 107 0
84 93 -75 -53 134 71 0
-72 -143 -52 -71 0
95 22 -91 0
-95 -40 29 38 0
15 84 -121 57 -13 0
21 134 -44 -139 0
13 36 76 84 0
-122 53 74 -58 -124 0
143 0
